&BANDS
prefix='aiida'
outdir='./out/'
filband='bands.dat'
/
