bands_plot = .true.
conv_tol =   2.0000000000d-07
conv_window = 3
dis_conv_tol =   2.0000000000d-07
dis_froz_max =   7.5
dis_num_iter = 4000
fermi_energy =   6.2881
mp_grid = 4 4 4
num_bands = 16
num_cg_steps = 200
num_iter = 4000
num_wann = 8
# spn_formatted = .true.
wannier_plot = .true.
wannier_plot_format = cube
wannier_plot_supercell = 3
# wvfn_formatted = .true.

exclude_bands = 1-5

begin atoms_cart
ang
Ga           0.0000000000       0.0000000000       0.0000000000
As           1.4367121864       1.4367121864       4.3101365593
end atoms_cart

begin projections
Ga:s;p
As:s;p
end projections

begin unit_cell_cart
ang
      0.0000000000       2.8734243728       2.8734243728
      2.8734243728       0.0000000000       2.8734243728
      2.8734243728       2.8734243728       0.0000000000
end unit_cell_cart

begin kpoint_path
G  0.000 0.000 0.000    X  0.500 0.000 0.500
X  0.500 0.000 0.500    U  0.625 0.250 0.625
U  0.625 0.250 0.625    K  0.375 0.375 0.750
K  0.375 0.375 0.750    G  0.000 0.000 0.000
G  0.000 0.000 0.000    L  0.500 0.500 0.500
L  0.500 0.500 0.500    W  0.500 0.250 0.750
W  0.500 0.250 0.750    X  0.500 0.000 0.500
end kpoint_path

begin kpoints
    0.000000000000000    0.000000000000000    0.000000000000000    0.0156250000
    0.000000000000000    0.000000000000000    0.249999999999994    0.0156250000
    0.000000000000000    0.000000000000000   -0.499999999999988    0.0156250000
    0.000000000000000    0.000000000000000   -0.249999999999994    0.0156250000
    0.000000000000000    0.249999999999994    0.000000000000000    0.0156250000
    0.000000000000000    0.249999999999994    0.249999999999994    0.0156250000
    0.000000000000000    0.249999999999994   -0.499999999999988    0.0156250000
    0.000000000000000    0.249999999999994   -0.249999999999994    0.0156250000
    0.000000000000000   -0.499999999999988    0.000000000000000    0.0156250000
    0.000000000000000   -0.499999999999988    0.249999999999994    0.0156250000
    0.000000000000000   -0.499999999999988   -0.499999999999988    0.0156250000
    0.000000000000000    0.499999999999988   -0.249999999999994    0.0156250000
    0.000000000000000   -0.249999999999994    0.000000000000000    0.0156250000
    0.000000000000000   -0.249999999999994    0.249999999999994    0.0156250000
    0.000000000000000   -0.249999999999994    0.499999999999988    0.0156250000
    0.000000000000000   -0.249999999999994   -0.249999999999994    0.0156250000
    0.249999999999994    0.000000000000000    0.000000000000000    0.0156250000
    0.249999999999994    0.000000000000000    0.249999999999994    0.0156250000
    0.249999999999994    0.000000000000000   -0.499999999999988    0.0156250000
    0.249999999999994    0.000000000000000   -0.249999999999994    0.0156250000
    0.249999999999994    0.249999999999994    0.000000000000000    0.0156250000
    0.249999999999994    0.249999999999994    0.249999999999994    0.0156250000
    0.249999999999994    0.249999999999994    0.499999999999988    0.0156250000
    0.249999999999994    0.249999999999994    0.749999999999982    0.0156250000
    0.249999999999994   -0.499999999999988    0.000000000000000    0.0156250000
    0.249999999999994    0.499999999999988    0.249999999999994    0.0156250000
   -0.749999999999982   -0.499999999999988   -0.499999999999988    0.0156250000
    0.249999999999994   -0.499999999999988   -0.249999999999994    0.0156250000
    0.249999999999994   -0.249999999999994    0.000000000000000    0.0156250000
    0.249999999999994    0.749999999999982    0.249999999999994    0.0156250000
    0.249999999999994   -0.249999999999994    0.499999999999988    0.0156250000
   -0.749999999999982   -0.249999999999994   -0.249999999999994    0.0156250000
   -0.499999999999988    0.000000000000000    0.000000000000000    0.0156250000
   -0.499999999999988    0.000000000000000    0.249999999999994    0.0156250000
   -0.499999999999988    0.000000000000000   -0.499999999999988    0.0156250000
    0.499999999999988    0.000000000000000   -0.249999999999994    0.0156250000
   -0.499999999999988    0.249999999999994    0.000000000000000    0.0156250000
    0.499999999999988    0.249999999999994    0.249999999999994    0.0156250000
   -0.499999999999988   -0.749999999999982   -0.499999999999988    0.0156250000
    0.499999999999988    0.249999999999994   -0.249999999999994    0.0156250000
   -0.499999999999988   -0.499999999999988    0.000000000000000    0.0156250000
   -0.499999999999988   -0.499999999999988   -0.749999999999982    0.0156250000
    0.499999999999988    0.499999999999988    0.499999999999988    0.0156250000
    0.499999999999988    0.499999999999988    0.749999999999982    0.0156250000
    0.499999999999988   -0.249999999999994    0.000000000000000    0.0156250000
   -0.499999999999988   -0.249999999999994    0.249999999999994    0.0156250000
    0.499999999999988    0.749999999999982    0.499999999999988    0.0156250000
   -0.499999999999988   -0.249999999999994   -0.249999999999994    0.0156250000
   -0.249999999999994    0.000000000000000    0.000000000000000    0.0156250000
   -0.249999999999994    0.000000000000000    0.249999999999994    0.0156250000
   -0.249999999999994    0.000000000000000    0.499999999999988    0.0156250000
   -0.249999999999994    0.000000000000000   -0.249999999999994    0.0156250000
   -0.249999999999994    0.249999999999994    0.000000000000000    0.0156250000
    0.749999999999982    0.249999999999994    0.249999999999994    0.0156250000
   -0.249999999999994    0.249999999999994   -0.499999999999988    0.0156250000
   -0.249999999999994   -0.749999999999982   -0.249999999999994    0.0156250000
   -0.249999999999994    0.499999999999988    0.000000000000000    0.0156250000
   -0.249999999999994    0.499999999999988    0.249999999999994    0.0156250000
    0.749999999999982    0.499999999999988    0.499999999999988    0.0156250000
   -0.249999999999994   -0.499999999999988   -0.249999999999994    0.0156250000
   -0.249999999999994   -0.249999999999994    0.000000000000000    0.0156250000
   -0.249999999999994   -0.249999999999994   -0.749999999999982    0.0156250000
   -0.249999999999994   -0.249999999999994   -0.499999999999988    0.0156250000
   -0.249999999999994   -0.249999999999994   -0.249999999999994    0.0156250000
end kpoints
