auto_projections = .true.
conv_tol =   3.0000000000d-07
conv_window = 3
dis_conv_tol =   3.0000000000d-07
dis_froz_max =   7.4637293957d+00
dis_num_iter = 4000
dis_proj_max =   9.5000000000d-01
dis_proj_min =   1.0000000000d-02
exclude_bands = 1-5
fermi_energy =   5.2674000000d+00
kmesh_tol =   1.0000000000d-08
mp_grid = 10, 10, 5
num_bands = 29
num_cg_steps = 200
num_iter = 4000
num_wann = 12
spn_formatted = .true.
wannier_plot = .true.
wannier_plot_format = cube
wannier_plot_supercell = 6
wvfn_formatted = .true.

begin atoms_cart
ang
Sn         0.0000000000       0.0000000000       0.0000000000
Se         4.4519813996       0.0000000000       5.3492441073
Se         5.5649791798       1.9277046503       1.6089871028
end atoms_cart

begin kpoints
      0.0000000000       0.0000000000       0.0000000000
      0.0000000000       0.0000000000       0.2000000000
      0.0000000000       0.0000000000       0.4000000000
      0.0000000000       0.0000000000       0.6000000000
      0.0000000000       0.0000000000       0.8000000000
      0.0000000000       0.1000000000       0.0000000000
      0.0000000000       0.1000000000       0.2000000000
      0.0000000000       0.1000000000       0.4000000000
      0.0000000000       0.1000000000       0.6000000000
      0.0000000000       0.1000000000       0.8000000000
      0.0000000000       0.2000000000       0.0000000000
      0.0000000000       0.2000000000       0.2000000000
      0.0000000000       0.2000000000       0.4000000000
      0.0000000000       0.2000000000       0.6000000000
      0.0000000000       0.2000000000       0.8000000000
      0.0000000000       0.3000000000       0.0000000000
      0.0000000000       0.3000000000       0.2000000000
      0.0000000000       0.3000000000       0.4000000000
      0.0000000000       0.3000000000       0.6000000000
      0.0000000000       0.3000000000       0.8000000000
      0.0000000000       0.4000000000       0.0000000000
      0.0000000000       0.4000000000       0.2000000000
      0.0000000000       0.4000000000       0.4000000000
      0.0000000000       0.4000000000       0.6000000000
      0.0000000000       0.4000000000       0.8000000000
      0.0000000000       0.5000000000       0.0000000000
      0.0000000000       0.5000000000       0.2000000000
      0.0000000000       0.5000000000       0.4000000000
      0.0000000000       0.5000000000       0.6000000000
      0.0000000000       0.5000000000       0.8000000000
      0.0000000000       0.6000000000       0.0000000000
      0.0000000000       0.6000000000       0.2000000000
      0.0000000000       0.6000000000       0.4000000000
      0.0000000000       0.6000000000       0.6000000000
      0.0000000000       0.6000000000       0.8000000000
      0.0000000000       0.7000000000       0.0000000000
      0.0000000000       0.7000000000       0.2000000000
      0.0000000000       0.7000000000       0.4000000000
      0.0000000000       0.7000000000       0.6000000000
      0.0000000000       0.7000000000       0.8000000000
      0.0000000000       0.8000000000       0.0000000000
      0.0000000000       0.8000000000       0.2000000000
      0.0000000000       0.8000000000       0.4000000000
      0.0000000000       0.8000000000       0.6000000000
      0.0000000000       0.8000000000       0.8000000000
      0.0000000000       0.9000000000       0.0000000000
      0.0000000000       0.9000000000       0.2000000000
      0.0000000000       0.9000000000       0.4000000000
      0.0000000000       0.9000000000       0.6000000000
      0.0000000000       0.9000000000       0.8000000000
      0.1000000000       0.0000000000       0.0000000000
      0.1000000000       0.0000000000       0.2000000000
      0.1000000000       0.0000000000       0.4000000000
      0.1000000000       0.0000000000       0.6000000000
      0.1000000000       0.0000000000       0.8000000000
      0.1000000000       0.1000000000       0.0000000000
      0.1000000000       0.1000000000       0.2000000000
      0.1000000000       0.1000000000       0.4000000000
      0.1000000000       0.1000000000       0.6000000000
      0.1000000000       0.1000000000       0.8000000000
      0.1000000000       0.2000000000       0.0000000000
      0.1000000000       0.2000000000       0.2000000000
      0.1000000000       0.2000000000       0.4000000000
      0.1000000000       0.2000000000       0.6000000000
      0.1000000000       0.2000000000       0.8000000000
      0.1000000000       0.3000000000       0.0000000000
      0.1000000000       0.3000000000       0.2000000000
      0.1000000000       0.3000000000       0.4000000000
      0.1000000000       0.3000000000       0.6000000000
      0.1000000000       0.3000000000       0.8000000000
      0.1000000000       0.4000000000       0.0000000000
      0.1000000000       0.4000000000       0.2000000000
      0.1000000000       0.4000000000       0.4000000000
      0.1000000000       0.4000000000       0.6000000000
      0.1000000000       0.4000000000       0.8000000000
      0.1000000000       0.5000000000       0.0000000000
      0.1000000000       0.5000000000       0.2000000000
      0.1000000000       0.5000000000       0.4000000000
      0.1000000000       0.5000000000       0.6000000000
      0.1000000000       0.5000000000       0.8000000000
      0.1000000000       0.6000000000       0.0000000000
      0.1000000000       0.6000000000       0.2000000000
      0.1000000000       0.6000000000       0.4000000000
      0.1000000000       0.6000000000       0.6000000000
      0.1000000000       0.6000000000       0.8000000000
      0.1000000000       0.7000000000       0.0000000000
      0.1000000000       0.7000000000       0.2000000000
      0.1000000000       0.7000000000       0.4000000000
      0.1000000000       0.7000000000       0.6000000000
      0.1000000000       0.7000000000       0.8000000000
      0.1000000000       0.8000000000       0.0000000000
      0.1000000000       0.8000000000       0.2000000000
      0.1000000000       0.8000000000       0.4000000000
      0.1000000000       0.8000000000       0.6000000000
      0.1000000000       0.8000000000       0.8000000000
      0.1000000000       0.9000000000       0.0000000000
      0.1000000000       0.9000000000       0.2000000000
      0.1000000000       0.9000000000       0.4000000000
      0.1000000000       0.9000000000       0.6000000000
      0.1000000000       0.9000000000       0.8000000000
      0.2000000000       0.0000000000       0.0000000000
      0.2000000000       0.0000000000       0.2000000000
      0.2000000000       0.0000000000       0.4000000000
      0.2000000000       0.0000000000       0.6000000000
      0.2000000000       0.0000000000       0.8000000000
      0.2000000000       0.1000000000       0.0000000000
      0.2000000000       0.1000000000       0.2000000000
      0.2000000000       0.1000000000       0.4000000000
      0.2000000000       0.1000000000       0.6000000000
      0.2000000000       0.1000000000       0.8000000000
      0.2000000000       0.2000000000       0.0000000000
      0.2000000000       0.2000000000       0.2000000000
      0.2000000000       0.2000000000       0.4000000000
      0.2000000000       0.2000000000       0.6000000000
      0.2000000000       0.2000000000       0.8000000000
      0.2000000000       0.3000000000       0.0000000000
      0.2000000000       0.3000000000       0.2000000000
      0.2000000000       0.3000000000       0.4000000000
      0.2000000000       0.3000000000       0.6000000000
      0.2000000000       0.3000000000       0.8000000000
      0.2000000000       0.4000000000       0.0000000000
      0.2000000000       0.4000000000       0.2000000000
      0.2000000000       0.4000000000       0.4000000000
      0.2000000000       0.4000000000       0.6000000000
      0.2000000000       0.4000000000       0.8000000000
      0.2000000000       0.5000000000       0.0000000000
      0.2000000000       0.5000000000       0.2000000000
      0.2000000000       0.5000000000       0.4000000000
      0.2000000000       0.5000000000       0.6000000000
      0.2000000000       0.5000000000       0.8000000000
      0.2000000000       0.6000000000       0.0000000000
      0.2000000000       0.6000000000       0.2000000000
      0.2000000000       0.6000000000       0.4000000000
      0.2000000000       0.6000000000       0.6000000000
      0.2000000000       0.6000000000       0.8000000000
      0.2000000000       0.7000000000       0.0000000000
      0.2000000000       0.7000000000       0.2000000000
      0.2000000000       0.7000000000       0.4000000000
      0.2000000000       0.7000000000       0.6000000000
      0.2000000000       0.7000000000       0.8000000000
      0.2000000000       0.8000000000       0.0000000000
      0.2000000000       0.8000000000       0.2000000000
      0.2000000000       0.8000000000       0.4000000000
      0.2000000000       0.8000000000       0.6000000000
      0.2000000000       0.8000000000       0.8000000000
      0.2000000000       0.9000000000       0.0000000000
      0.2000000000       0.9000000000       0.2000000000
      0.2000000000       0.9000000000       0.4000000000
      0.2000000000       0.9000000000       0.6000000000
      0.2000000000       0.9000000000       0.8000000000
      0.3000000000       0.0000000000       0.0000000000
      0.3000000000       0.0000000000       0.2000000000
      0.3000000000       0.0000000000       0.4000000000
      0.3000000000       0.0000000000       0.6000000000
      0.3000000000       0.0000000000       0.8000000000
      0.3000000000       0.1000000000       0.0000000000
      0.3000000000       0.1000000000       0.2000000000
      0.3000000000       0.1000000000       0.4000000000
      0.3000000000       0.1000000000       0.6000000000
      0.3000000000       0.1000000000       0.8000000000
      0.3000000000       0.2000000000       0.0000000000
      0.3000000000       0.2000000000       0.2000000000
      0.3000000000       0.2000000000       0.4000000000
      0.3000000000       0.2000000000       0.6000000000
      0.3000000000       0.2000000000       0.8000000000
      0.3000000000       0.3000000000       0.0000000000
      0.3000000000       0.3000000000       0.2000000000
      0.3000000000       0.3000000000       0.4000000000
      0.3000000000       0.3000000000       0.6000000000
      0.3000000000       0.3000000000       0.8000000000
      0.3000000000       0.4000000000       0.0000000000
      0.3000000000       0.4000000000       0.2000000000
      0.3000000000       0.4000000000       0.4000000000
      0.3000000000       0.4000000000       0.6000000000
      0.3000000000       0.4000000000       0.8000000000
      0.3000000000       0.5000000000       0.0000000000
      0.3000000000       0.5000000000       0.2000000000
      0.3000000000       0.5000000000       0.4000000000
      0.3000000000       0.5000000000       0.6000000000
      0.3000000000       0.5000000000       0.8000000000
      0.3000000000       0.6000000000       0.0000000000
      0.3000000000       0.6000000000       0.2000000000
      0.3000000000       0.6000000000       0.4000000000
      0.3000000000       0.6000000000       0.6000000000
      0.3000000000       0.6000000000       0.8000000000
      0.3000000000       0.7000000000       0.0000000000
      0.3000000000       0.7000000000       0.2000000000
      0.3000000000       0.7000000000       0.4000000000
      0.3000000000       0.7000000000       0.6000000000
      0.3000000000       0.7000000000       0.8000000000
      0.3000000000       0.8000000000       0.0000000000
      0.3000000000       0.8000000000       0.2000000000
      0.3000000000       0.8000000000       0.4000000000
      0.3000000000       0.8000000000       0.6000000000
      0.3000000000       0.8000000000       0.8000000000
      0.3000000000       0.9000000000       0.0000000000
      0.3000000000       0.9000000000       0.2000000000
      0.3000000000       0.9000000000       0.4000000000
      0.3000000000       0.9000000000       0.6000000000
      0.3000000000       0.9000000000       0.8000000000
      0.4000000000       0.0000000000       0.0000000000
      0.4000000000       0.0000000000       0.2000000000
      0.4000000000       0.0000000000       0.4000000000
      0.4000000000       0.0000000000       0.6000000000
      0.4000000000       0.0000000000       0.8000000000
      0.4000000000       0.1000000000       0.0000000000
      0.4000000000       0.1000000000       0.2000000000
      0.4000000000       0.1000000000       0.4000000000
      0.4000000000       0.1000000000       0.6000000000
      0.4000000000       0.1000000000       0.8000000000
      0.4000000000       0.2000000000       0.0000000000
      0.4000000000       0.2000000000       0.2000000000
      0.4000000000       0.2000000000       0.4000000000
      0.4000000000       0.2000000000       0.6000000000
      0.4000000000       0.2000000000       0.8000000000
      0.4000000000       0.3000000000       0.0000000000
      0.4000000000       0.3000000000       0.2000000000
      0.4000000000       0.3000000000       0.4000000000
      0.4000000000       0.3000000000       0.6000000000
      0.4000000000       0.3000000000       0.8000000000
      0.4000000000       0.4000000000       0.0000000000
      0.4000000000       0.4000000000       0.2000000000
      0.4000000000       0.4000000000       0.4000000000
      0.4000000000       0.4000000000       0.6000000000
      0.4000000000       0.4000000000       0.8000000000
      0.4000000000       0.5000000000       0.0000000000
      0.4000000000       0.5000000000       0.2000000000
      0.4000000000       0.5000000000       0.4000000000
      0.4000000000       0.5000000000       0.6000000000
      0.4000000000       0.5000000000       0.8000000000
      0.4000000000       0.6000000000       0.0000000000
      0.4000000000       0.6000000000       0.2000000000
      0.4000000000       0.6000000000       0.4000000000
      0.4000000000       0.6000000000       0.6000000000
      0.4000000000       0.6000000000       0.8000000000
      0.4000000000       0.7000000000       0.0000000000
      0.4000000000       0.7000000000       0.2000000000
      0.4000000000       0.7000000000       0.4000000000
      0.4000000000       0.7000000000       0.6000000000
      0.4000000000       0.7000000000       0.8000000000
      0.4000000000       0.8000000000       0.0000000000
      0.4000000000       0.8000000000       0.2000000000
      0.4000000000       0.8000000000       0.4000000000
      0.4000000000       0.8000000000       0.6000000000
      0.4000000000       0.8000000000       0.8000000000
      0.4000000000       0.9000000000       0.0000000000
      0.4000000000       0.9000000000       0.2000000000
      0.4000000000       0.9000000000       0.4000000000
      0.4000000000       0.9000000000       0.6000000000
      0.4000000000       0.9000000000       0.8000000000
      0.5000000000       0.0000000000       0.0000000000
      0.5000000000       0.0000000000       0.2000000000
      0.5000000000       0.0000000000       0.4000000000
      0.5000000000       0.0000000000       0.6000000000
      0.5000000000       0.0000000000       0.8000000000
      0.5000000000       0.1000000000       0.0000000000
      0.5000000000       0.1000000000       0.2000000000
      0.5000000000       0.1000000000       0.4000000000
      0.5000000000       0.1000000000       0.6000000000
      0.5000000000       0.1000000000       0.8000000000
      0.5000000000       0.2000000000       0.0000000000
      0.5000000000       0.2000000000       0.2000000000
      0.5000000000       0.2000000000       0.4000000000
      0.5000000000       0.2000000000       0.6000000000
      0.5000000000       0.2000000000       0.8000000000
      0.5000000000       0.3000000000       0.0000000000
      0.5000000000       0.3000000000       0.2000000000
      0.5000000000       0.3000000000       0.4000000000
      0.5000000000       0.3000000000       0.6000000000
      0.5000000000       0.3000000000       0.8000000000
      0.5000000000       0.4000000000       0.0000000000
      0.5000000000       0.4000000000       0.2000000000
      0.5000000000       0.4000000000       0.4000000000
      0.5000000000       0.4000000000       0.6000000000
      0.5000000000       0.4000000000       0.8000000000
      0.5000000000       0.5000000000       0.0000000000
      0.5000000000       0.5000000000       0.2000000000
      0.5000000000       0.5000000000       0.4000000000
      0.5000000000       0.5000000000       0.6000000000
      0.5000000000       0.5000000000       0.8000000000
      0.5000000000       0.6000000000       0.0000000000
      0.5000000000       0.6000000000       0.2000000000
      0.5000000000       0.6000000000       0.4000000000
      0.5000000000       0.6000000000       0.6000000000
      0.5000000000       0.6000000000       0.8000000000
      0.5000000000       0.7000000000       0.0000000000
      0.5000000000       0.7000000000       0.2000000000
      0.5000000000       0.7000000000       0.4000000000
      0.5000000000       0.7000000000       0.6000000000
      0.5000000000       0.7000000000       0.8000000000
      0.5000000000       0.8000000000       0.0000000000
      0.5000000000       0.8000000000       0.2000000000
      0.5000000000       0.8000000000       0.4000000000
      0.5000000000       0.8000000000       0.6000000000
      0.5000000000       0.8000000000       0.8000000000
      0.5000000000       0.9000000000       0.0000000000
      0.5000000000       0.9000000000       0.2000000000
      0.5000000000       0.9000000000       0.4000000000
      0.5000000000       0.9000000000       0.6000000000
      0.5000000000       0.9000000000       0.8000000000
      0.6000000000       0.0000000000       0.0000000000
      0.6000000000       0.0000000000       0.2000000000
      0.6000000000       0.0000000000       0.4000000000
      0.6000000000       0.0000000000       0.6000000000
      0.6000000000       0.0000000000       0.8000000000
      0.6000000000       0.1000000000       0.0000000000
      0.6000000000       0.1000000000       0.2000000000
      0.6000000000       0.1000000000       0.4000000000
      0.6000000000       0.1000000000       0.6000000000
      0.6000000000       0.1000000000       0.8000000000
      0.6000000000       0.2000000000       0.0000000000
      0.6000000000       0.2000000000       0.2000000000
      0.6000000000       0.2000000000       0.4000000000
      0.6000000000       0.2000000000       0.6000000000
      0.6000000000       0.2000000000       0.8000000000
      0.6000000000       0.3000000000       0.0000000000
      0.6000000000       0.3000000000       0.2000000000
      0.6000000000       0.3000000000       0.4000000000
      0.6000000000       0.3000000000       0.6000000000
      0.6000000000       0.3000000000       0.8000000000
      0.6000000000       0.4000000000       0.0000000000
      0.6000000000       0.4000000000       0.2000000000
      0.6000000000       0.4000000000       0.4000000000
      0.6000000000       0.4000000000       0.6000000000
      0.6000000000       0.4000000000       0.8000000000
      0.6000000000       0.5000000000       0.0000000000
      0.6000000000       0.5000000000       0.2000000000
      0.6000000000       0.5000000000       0.4000000000
      0.6000000000       0.5000000000       0.6000000000
      0.6000000000       0.5000000000       0.8000000000
      0.6000000000       0.6000000000       0.0000000000
      0.6000000000       0.6000000000       0.2000000000
      0.6000000000       0.6000000000       0.4000000000
      0.6000000000       0.6000000000       0.6000000000
      0.6000000000       0.6000000000       0.8000000000
      0.6000000000       0.7000000000       0.0000000000
      0.6000000000       0.7000000000       0.2000000000
      0.6000000000       0.7000000000       0.4000000000
      0.6000000000       0.7000000000       0.6000000000
      0.6000000000       0.7000000000       0.8000000000
      0.6000000000       0.8000000000       0.0000000000
      0.6000000000       0.8000000000       0.2000000000
      0.6000000000       0.8000000000       0.4000000000
      0.6000000000       0.8000000000       0.6000000000
      0.6000000000       0.8000000000       0.8000000000
      0.6000000000       0.9000000000       0.0000000000
      0.6000000000       0.9000000000       0.2000000000
      0.6000000000       0.9000000000       0.4000000000
      0.6000000000       0.9000000000       0.6000000000
      0.6000000000       0.9000000000       0.8000000000
      0.7000000000       0.0000000000       0.0000000000
      0.7000000000       0.0000000000       0.2000000000
      0.7000000000       0.0000000000       0.4000000000
      0.7000000000       0.0000000000       0.6000000000
      0.7000000000       0.0000000000       0.8000000000
      0.7000000000       0.1000000000       0.0000000000
      0.7000000000       0.1000000000       0.2000000000
      0.7000000000       0.1000000000       0.4000000000
      0.7000000000       0.1000000000       0.6000000000
      0.7000000000       0.1000000000       0.8000000000
      0.7000000000       0.2000000000       0.0000000000
      0.7000000000       0.2000000000       0.2000000000
      0.7000000000       0.2000000000       0.4000000000
      0.7000000000       0.2000000000       0.6000000000
      0.7000000000       0.2000000000       0.8000000000
      0.7000000000       0.3000000000       0.0000000000
      0.7000000000       0.3000000000       0.2000000000
      0.7000000000       0.3000000000       0.4000000000
      0.7000000000       0.3000000000       0.6000000000
      0.7000000000       0.3000000000       0.8000000000
      0.7000000000       0.4000000000       0.0000000000
      0.7000000000       0.4000000000       0.2000000000
      0.7000000000       0.4000000000       0.4000000000
      0.7000000000       0.4000000000       0.6000000000
      0.7000000000       0.4000000000       0.8000000000
      0.7000000000       0.5000000000       0.0000000000
      0.7000000000       0.5000000000       0.2000000000
      0.7000000000       0.5000000000       0.4000000000
      0.7000000000       0.5000000000       0.6000000000
      0.7000000000       0.5000000000       0.8000000000
      0.7000000000       0.6000000000       0.0000000000
      0.7000000000       0.6000000000       0.2000000000
      0.7000000000       0.6000000000       0.4000000000
      0.7000000000       0.6000000000       0.6000000000
      0.7000000000       0.6000000000       0.8000000000
      0.7000000000       0.7000000000       0.0000000000
      0.7000000000       0.7000000000       0.2000000000
      0.7000000000       0.7000000000       0.4000000000
      0.7000000000       0.7000000000       0.6000000000
      0.7000000000       0.7000000000       0.8000000000
      0.7000000000       0.8000000000       0.0000000000
      0.7000000000       0.8000000000       0.2000000000
      0.7000000000       0.8000000000       0.4000000000
      0.7000000000       0.8000000000       0.6000000000
      0.7000000000       0.8000000000       0.8000000000
      0.7000000000       0.9000000000       0.0000000000
      0.7000000000       0.9000000000       0.2000000000
      0.7000000000       0.9000000000       0.4000000000
      0.7000000000       0.9000000000       0.6000000000
      0.7000000000       0.9000000000       0.8000000000
      0.8000000000       0.0000000000       0.0000000000
      0.8000000000       0.0000000000       0.2000000000
      0.8000000000       0.0000000000       0.4000000000
      0.8000000000       0.0000000000       0.6000000000
      0.8000000000       0.0000000000       0.8000000000
      0.8000000000       0.1000000000       0.0000000000
      0.8000000000       0.1000000000       0.2000000000
      0.8000000000       0.1000000000       0.4000000000
      0.8000000000       0.1000000000       0.6000000000
      0.8000000000       0.1000000000       0.8000000000
      0.8000000000       0.2000000000       0.0000000000
      0.8000000000       0.2000000000       0.2000000000
      0.8000000000       0.2000000000       0.4000000000
      0.8000000000       0.2000000000       0.6000000000
      0.8000000000       0.2000000000       0.8000000000
      0.8000000000       0.3000000000       0.0000000000
      0.8000000000       0.3000000000       0.2000000000
      0.8000000000       0.3000000000       0.4000000000
      0.8000000000       0.3000000000       0.6000000000
      0.8000000000       0.3000000000       0.8000000000
      0.8000000000       0.4000000000       0.0000000000
      0.8000000000       0.4000000000       0.2000000000
      0.8000000000       0.4000000000       0.4000000000
      0.8000000000       0.4000000000       0.6000000000
      0.8000000000       0.4000000000       0.8000000000
      0.8000000000       0.5000000000       0.0000000000
      0.8000000000       0.5000000000       0.2000000000
      0.8000000000       0.5000000000       0.4000000000
      0.8000000000       0.5000000000       0.6000000000
      0.8000000000       0.5000000000       0.8000000000
      0.8000000000       0.6000000000       0.0000000000
      0.8000000000       0.6000000000       0.2000000000
      0.8000000000       0.6000000000       0.4000000000
      0.8000000000       0.6000000000       0.6000000000
      0.8000000000       0.6000000000       0.8000000000
      0.8000000000       0.7000000000       0.0000000000
      0.8000000000       0.7000000000       0.2000000000
      0.8000000000       0.7000000000       0.4000000000
      0.8000000000       0.7000000000       0.6000000000
      0.8000000000       0.7000000000       0.8000000000
      0.8000000000       0.8000000000       0.0000000000
      0.8000000000       0.8000000000       0.2000000000
      0.8000000000       0.8000000000       0.4000000000
      0.8000000000       0.8000000000       0.6000000000
      0.8000000000       0.8000000000       0.8000000000
      0.8000000000       0.9000000000       0.0000000000
      0.8000000000       0.9000000000       0.2000000000
      0.8000000000       0.9000000000       0.4000000000
      0.8000000000       0.9000000000       0.6000000000
      0.8000000000       0.9000000000       0.8000000000
      0.9000000000       0.0000000000       0.0000000000
      0.9000000000       0.0000000000       0.2000000000
      0.9000000000       0.0000000000       0.4000000000
      0.9000000000       0.0000000000       0.6000000000
      0.9000000000       0.0000000000       0.8000000000
      0.9000000000       0.1000000000       0.0000000000
      0.9000000000       0.1000000000       0.2000000000
      0.9000000000       0.1000000000       0.4000000000
      0.9000000000       0.1000000000       0.6000000000
      0.9000000000       0.1000000000       0.8000000000
      0.9000000000       0.2000000000       0.0000000000
      0.9000000000       0.2000000000       0.2000000000
      0.9000000000       0.2000000000       0.4000000000
      0.9000000000       0.2000000000       0.6000000000
      0.9000000000       0.2000000000       0.8000000000
      0.9000000000       0.3000000000       0.0000000000
      0.9000000000       0.3000000000       0.2000000000
      0.9000000000       0.3000000000       0.4000000000
      0.9000000000       0.3000000000       0.6000000000
      0.9000000000       0.3000000000       0.8000000000
      0.9000000000       0.4000000000       0.0000000000
      0.9000000000       0.4000000000       0.2000000000
      0.9000000000       0.4000000000       0.4000000000
      0.9000000000       0.4000000000       0.6000000000
      0.9000000000       0.4000000000       0.8000000000
      0.9000000000       0.5000000000       0.0000000000
      0.9000000000       0.5000000000       0.2000000000
      0.9000000000       0.5000000000       0.4000000000
      0.9000000000       0.5000000000       0.6000000000
      0.9000000000       0.5000000000       0.8000000000
      0.9000000000       0.6000000000       0.0000000000
      0.9000000000       0.6000000000       0.2000000000
      0.9000000000       0.6000000000       0.4000000000
      0.9000000000       0.6000000000       0.6000000000
      0.9000000000       0.6000000000       0.8000000000
      0.9000000000       0.7000000000       0.0000000000
      0.9000000000       0.7000000000       0.2000000000
      0.9000000000       0.7000000000       0.4000000000
      0.9000000000       0.7000000000       0.6000000000
      0.9000000000       0.7000000000       0.8000000000
      0.9000000000       0.8000000000       0.0000000000
      0.9000000000       0.8000000000       0.2000000000
      0.9000000000       0.8000000000       0.4000000000
      0.9000000000       0.8000000000       0.6000000000
      0.9000000000       0.8000000000       0.8000000000
      0.9000000000       0.9000000000       0.0000000000
      0.9000000000       0.9000000000       0.2000000000
      0.9000000000       0.9000000000       0.4000000000
      0.9000000000       0.9000000000       0.6000000000
      0.9000000000       0.9000000000       0.8000000000
end kpoints

begin projections
end projections

begin unit_cell_cart
ang
      3.3389943507       1.9277046503       0.0000000000
     -3.3389943507       1.9277046503       0.0000000000
     -0.0000224727       0.0000000000       6.9582312101
end unit_cell_cart
