&inputpp
  outdir     =  './'
  prefix     =  'si'
  seedname   =  'silicon'
  write_amn  =  .false.
  write_mmn  =  .true.
  write_unk  =  .true.
/
