!restart              : plot
bands_plot           : true
bands_num_points     : 300
conv_tol             :   1.0000000000e-12
conv_window          : 20
exclude_bands        : 1 2 3 4
guiding_centres      : true
write_hr              : true
iprint               : 2
mp_grid              : 14 14 1
num_bands            : 12
num_iter             : 100
num_print_cycles     : 10
num_wann             : 12
spinors              : true
translate_home_cell  : true
wannier_plot         : false
write_xyz            : true
num_cg_steps         : 20 

dos : false
dos_energy_step : 0.001
dos_kmesh  : 1000 1000 1
dos_adpt_smr_max : 0.005

kpath = true
kpath_task = bands
kpath_bands_colour = spin
kpath_num_points=200



begin atoms_cart
ang
As        0.0000000000       2.0788418781       9.3032817547
As        1.8003298769       1.0394209390      10.6967182453
end atoms_cart

begin unit_cell_cart
ang
      3.6006597537       0.0000000000       0.0000000000
     -1.8003298769       3.1182628171       0.0000000000
      0.0000000000       0.0000000000      20.0000000000
end unit_cell_cart

begin projections
As:p
end projections

begin kpoint_path
G  0.00000000  0.00000000  0.00000000 Q  0.50000000  0.00000000  0.00000000
Q  0.50000000  0.00000000  0.00000000 P  0.33333333  0.33333333  0.00000000
P  0.33333333  0.33333333  0.00000000 G  0.00000000  0.00000000  0.00000000
end kpoint_path

begin kpoints
        0.0000000000       0.0000000000       0.0000000000
        0.0000000000       0.0714285714       0.0000000000
        0.0000000000       0.1428571429       0.0000000000
        0.0000000000       0.2142857143       0.0000000000
        0.0000000000       0.2857142857       0.0000000000
        0.0000000000       0.3571428571       0.0000000000
        0.0000000000       0.4285714286       0.0000000000
        0.0000000000       0.5000000000       0.0000000000
        0.0000000000       0.5714285714       0.0000000000
        0.0000000000       0.6428571429       0.0000000000
        0.0000000000       0.7142857143       0.0000000000
        0.0000000000       0.7857142857       0.0000000000
        0.0000000000       0.8571428571       0.0000000000
        0.0000000000       0.9285714286       0.0000000000
        0.0714285714       0.0000000000       0.0000000000
        0.0714285714       0.0714285714       0.0000000000
        0.0714285714       0.1428571429       0.0000000000
        0.0714285714       0.2142857143       0.0000000000
        0.0714285714       0.2857142857       0.0000000000
        0.0714285714       0.3571428571       0.0000000000
        0.0714285714       0.4285714286       0.0000000000
        0.0714285714       0.5000000000       0.0000000000
        0.0714285714       0.5714285714       0.0000000000
        0.0714285714       0.6428571429       0.0000000000
        0.0714285714       0.7142857143       0.0000000000
        0.0714285714       0.7857142857       0.0000000000
        0.0714285714       0.8571428571       0.0000000000
        0.0714285714       0.9285714286       0.0000000000
        0.1428571429       0.0000000000       0.0000000000
        0.1428571429       0.0714285714       0.0000000000
        0.1428571429       0.1428571429       0.0000000000
        0.1428571429       0.2142857143       0.0000000000
        0.1428571429       0.2857142857       0.0000000000
        0.1428571429       0.3571428571       0.0000000000
        0.1428571429       0.4285714286       0.0000000000
        0.1428571429       0.5000000000       0.0000000000
        0.1428571429       0.5714285714       0.0000000000
        0.1428571429       0.6428571429       0.0000000000
        0.1428571429       0.7142857143       0.0000000000
        0.1428571429       0.7857142857       0.0000000000
        0.1428571429       0.8571428571       0.0000000000
        0.1428571429       0.9285714286       0.0000000000
        0.2142857143       0.0000000000       0.0000000000
        0.2142857143       0.0714285714       0.0000000000
        0.2142857143       0.1428571429       0.0000000000
        0.2142857143       0.2142857143       0.0000000000
        0.2142857143       0.2857142857       0.0000000000
        0.2142857143       0.3571428571       0.0000000000
        0.2142857143       0.4285714286       0.0000000000
        0.2142857143       0.5000000000       0.0000000000
        0.2142857143       0.5714285714       0.0000000000
        0.2142857143       0.6428571429       0.0000000000
        0.2142857143       0.7142857143       0.0000000000
        0.2142857143       0.7857142857       0.0000000000
        0.2142857143       0.8571428571       0.0000000000
        0.2142857143       0.9285714286       0.0000000000
        0.2857142857       0.0000000000       0.0000000000
        0.2857142857       0.0714285714       0.0000000000
        0.2857142857       0.1428571429       0.0000000000
        0.2857142857       0.2142857143       0.0000000000
        0.2857142857       0.2857142857       0.0000000000
        0.2857142857       0.3571428571       0.0000000000
        0.2857142857       0.4285714286       0.0000000000
        0.2857142857       0.5000000000       0.0000000000
        0.2857142857       0.5714285714       0.0000000000
        0.2857142857       0.6428571429       0.0000000000
        0.2857142857       0.7142857143       0.0000000000
        0.2857142857       0.7857142857       0.0000000000
        0.2857142857       0.8571428571       0.0000000000
        0.2857142857       0.9285714286       0.0000000000
        0.3571428571       0.0000000000       0.0000000000
        0.3571428571       0.0714285714       0.0000000000
        0.3571428571       0.1428571429       0.0000000000
        0.3571428571       0.2142857143       0.0000000000
        0.3571428571       0.2857142857       0.0000000000
        0.3571428571       0.3571428571       0.0000000000
        0.3571428571       0.4285714286       0.0000000000
        0.3571428571       0.5000000000       0.0000000000
        0.3571428571       0.5714285714       0.0000000000
        0.3571428571       0.6428571429       0.0000000000
        0.3571428571       0.7142857143       0.0000000000
        0.3571428571       0.7857142857       0.0000000000
        0.3571428571       0.8571428571       0.0000000000
        0.3571428571       0.9285714286       0.0000000000
        0.4285714286       0.0000000000       0.0000000000
        0.4285714286       0.0714285714       0.0000000000
        0.4285714286       0.1428571429       0.0000000000
        0.4285714286       0.2142857143       0.0000000000
        0.4285714286       0.2857142857       0.0000000000
        0.4285714286       0.3571428571       0.0000000000
        0.4285714286       0.4285714286       0.0000000000
        0.4285714286       0.5000000000       0.0000000000
        0.4285714286       0.5714285714       0.0000000000
        0.4285714286       0.6428571429       0.0000000000
        0.4285714286       0.7142857143       0.0000000000
        0.4285714286       0.7857142857       0.0000000000
        0.4285714286       0.8571428571       0.0000000000
        0.4285714286       0.9285714286       0.0000000000
        0.5000000000       0.0000000000       0.0000000000
        0.5000000000       0.0714285714       0.0000000000
        0.5000000000       0.1428571429       0.0000000000
        0.5000000000       0.2142857143       0.0000000000
        0.5000000000       0.2857142857       0.0000000000
        0.5000000000       0.3571428571       0.0000000000
        0.5000000000       0.4285714286       0.0000000000
        0.5000000000       0.5000000000       0.0000000000
        0.5000000000       0.5714285714       0.0000000000
        0.5000000000       0.6428571429       0.0000000000
        0.5000000000       0.7142857143       0.0000000000
        0.5000000000       0.7857142857       0.0000000000
        0.5000000000       0.8571428571       0.0000000000
        0.5000000000       0.9285714286       0.0000000000
        0.5714285714       0.0000000000       0.0000000000
        0.5714285714       0.0714285714       0.0000000000
        0.5714285714       0.1428571429       0.0000000000
        0.5714285714       0.2142857143       0.0000000000
        0.5714285714       0.2857142857       0.0000000000
        0.5714285714       0.3571428571       0.0000000000
        0.5714285714       0.4285714286       0.0000000000
        0.5714285714       0.5000000000       0.0000000000
        0.5714285714       0.5714285714       0.0000000000
        0.5714285714       0.6428571429       0.0000000000
        0.5714285714       0.7142857143       0.0000000000
        0.5714285714       0.7857142857       0.0000000000
        0.5714285714       0.8571428571       0.0000000000
        0.5714285714       0.9285714286       0.0000000000
        0.6428571429       0.0000000000       0.0000000000
        0.6428571429       0.0714285714       0.0000000000
        0.6428571429       0.1428571429       0.0000000000
        0.6428571429       0.2142857143       0.0000000000
        0.6428571429       0.2857142857       0.0000000000
        0.6428571429       0.3571428571       0.0000000000
        0.6428571429       0.4285714286       0.0000000000
        0.6428571429       0.5000000000       0.0000000000
        0.6428571429       0.5714285714       0.0000000000
        0.6428571429       0.6428571429       0.0000000000
        0.6428571429       0.7142857143       0.0000000000
        0.6428571429       0.7857142857       0.0000000000
        0.6428571429       0.8571428571       0.0000000000
        0.6428571429       0.9285714286       0.0000000000
        0.7142857143       0.0000000000       0.0000000000
        0.7142857143       0.0714285714       0.0000000000
        0.7142857143       0.1428571429       0.0000000000
        0.7142857143       0.2142857143       0.0000000000
        0.7142857143       0.2857142857       0.0000000000
        0.7142857143       0.3571428571       0.0000000000
        0.7142857143       0.4285714286       0.0000000000
        0.7142857143       0.5000000000       0.0000000000
        0.7142857143       0.5714285714       0.0000000000
        0.7142857143       0.6428571429       0.0000000000
        0.7142857143       0.7142857143       0.0000000000
        0.7142857143       0.7857142857       0.0000000000
        0.7142857143       0.8571428571       0.0000000000
        0.7142857143       0.9285714286       0.0000000000
        0.7857142857       0.0000000000       0.0000000000
        0.7857142857       0.0714285714       0.0000000000
        0.7857142857       0.1428571429       0.0000000000
        0.7857142857       0.2142857143       0.0000000000
        0.7857142857       0.2857142857       0.0000000000
        0.7857142857       0.3571428571       0.0000000000
        0.7857142857       0.4285714286       0.0000000000
        0.7857142857       0.5000000000       0.0000000000
        0.7857142857       0.5714285714       0.0000000000
        0.7857142857       0.6428571429       0.0000000000
        0.7857142857       0.7142857143       0.0000000000
        0.7857142857       0.7857142857       0.0000000000
        0.7857142857       0.8571428571       0.0000000000
        0.7857142857       0.9285714286       0.0000000000
        0.8571428571       0.0000000000       0.0000000000
        0.8571428571       0.0714285714       0.0000000000
        0.8571428571       0.1428571429       0.0000000000
        0.8571428571       0.2142857143       0.0000000000
        0.8571428571       0.2857142857       0.0000000000
        0.8571428571       0.3571428571       0.0000000000
        0.8571428571       0.4285714286       0.0000000000
        0.8571428571       0.5000000000       0.0000000000
        0.8571428571       0.5714285714       0.0000000000
        0.8571428571       0.6428571429       0.0000000000
        0.8571428571       0.7142857143       0.0000000000
        0.8571428571       0.7857142857       0.0000000000
        0.8571428571       0.8571428571       0.0000000000
        0.8571428571       0.9285714286       0.0000000000
        0.9285714286       0.0000000000       0.0000000000
        0.9285714286       0.0714285714       0.0000000000
        0.9285714286       0.1428571429       0.0000000000
        0.9285714286       0.2142857143       0.0000000000
        0.9285714286       0.2857142857       0.0000000000
        0.9285714286       0.3571428571       0.0000000000
        0.9285714286       0.4285714286       0.0000000000
        0.9285714286       0.5000000000       0.0000000000
        0.9285714286       0.5714285714       0.0000000000
        0.9285714286       0.6428571429       0.0000000000
        0.9285714286       0.7142857143       0.0000000000
        0.9285714286       0.7857142857       0.0000000000
        0.9285714286       0.8571428571       0.0000000000
        0.9285714286       0.9285714286       0.0000000000
end kpoints
