&CONTROL
  calculation = 'bands'
  etot_conv_thr =   2.0000000000d-05
  forc_conv_thr =   1.0000000000d-04
  max_seconds =   4.1040000000d+04
  outdir = './out/'
  prefix = 'gra'
  pseudo_dir = './pseudo/'
  restart_mode = 'from_scratch'
  tprnfor = .true.
  tstress = .true.
  verbosity = 'high'
/
&SYSTEM
  degauss =   1.0000000000d-02
  ecutrho =   360.0
  ecutwfc =   45.0
  ibrav = 0
  nat = 2
  nbnd = 20
  noinv = .true.
  nosym = .true.
  ntyp = 1
  occupations = 'smearing'
  smearing = 'cold'
/
&ELECTRONS
  conv_thr =   4.0000000000d-10
  diago_full_acc = .true.
  electron_maxstep = 80
  mixing_beta =   4.0000000000d-01
  startingpot = 'file'
/
ATOMIC_SPECIES
C     12 C.pbesol-n-kjpaw_psl.1.0.0.UPF
ATOMIC_POSITIONS crystal
C         0.0000000000    0.0000000000    0.5
C         0.3333333333    0.6666666667    0.5
CELL_PARAMETERS angstrom
    2.1304215583   -1.2299994602    0.0000000000
    0.0000000000    2.4599989204    0.0000000000
    0.0000000000    0.0000000000   10.0000000000
K_POINTS crystal
  274
    0.000000    0.000000    0.000000   1.0
    0.005000   -0.005000    0.000000   1.0
    0.010000   -0.010000    0.000000   1.0
    0.015000   -0.015000    0.000000   1.0
    0.020000   -0.020000    0.000000   1.0
    0.025000   -0.025000    0.000000   1.0
    0.030000   -0.030000    0.000000   1.0
    0.035000   -0.035000    0.000000   1.0
    0.040000   -0.040000    0.000000   1.0
    0.045000   -0.045000    0.000000   1.0
    0.050000   -0.050000    0.000000   1.0
    0.055000   -0.055000    0.000000   1.0
    0.060000   -0.060000    0.000000   1.0
    0.065000   -0.065000    0.000000   1.0
    0.070000   -0.070000    0.000000   1.0
    0.075000   -0.075000    0.000000   1.0
    0.080000   -0.080000    0.000000   1.0
    0.085000   -0.085000    0.000000   1.0
    0.090000   -0.090000    0.000000   1.0
    0.095000   -0.095000    0.000000   1.0
    0.100000   -0.100000    0.000000   1.0
    0.105000   -0.105000    0.000000   1.0
    0.110000   -0.110000    0.000000   1.0
    0.115000   -0.115000    0.000000   1.0
    0.120000   -0.120000    0.000000   1.0
    0.125000   -0.125000    0.000000   1.0
    0.130000   -0.130000    0.000000   1.0
    0.135000   -0.135000    0.000000   1.0
    0.140000   -0.140000    0.000000   1.0
    0.145000   -0.145000    0.000000   1.0
    0.150000   -0.150000    0.000000   1.0
    0.155000   -0.155000    0.000000   1.0
    0.160000   -0.160000    0.000000   1.0
    0.165000   -0.165000    0.000000   1.0
    0.170000   -0.170000    0.000000   1.0
    0.175000   -0.175000    0.000000   1.0
    0.180000   -0.180000    0.000000   1.0
    0.185000   -0.185000    0.000000   1.0
    0.190000   -0.190000    0.000000   1.0
    0.195000   -0.195000    0.000000   1.0
    0.200000   -0.200000    0.000000   1.0
    0.205000   -0.205000    0.000000   1.0
    0.210000   -0.210000    0.000000   1.0
    0.215000   -0.215000    0.000000   1.0
    0.220000   -0.220000    0.000000   1.0
    0.225000   -0.225000    0.000000   1.0
    0.230000   -0.230000    0.000000   1.0
    0.235000   -0.235000    0.000000   1.0
    0.240000   -0.240000    0.000000   1.0
    0.245000   -0.245000    0.000000   1.0
    0.250000   -0.250000    0.000000   1.0
    0.255000   -0.255000    0.000000   1.0
    0.260000   -0.260000    0.000000   1.0
    0.265000   -0.265000    0.000000   1.0
    0.270000   -0.270000    0.000000   1.0
    0.275000   -0.275000    0.000000   1.0
    0.280000   -0.280000    0.000000   1.0
    0.285000   -0.285000    0.000000   1.0
    0.290000   -0.290000    0.000000   1.0
    0.295000   -0.295000    0.000000   1.0
    0.300000   -0.300000    0.000000   1.0
    0.305000   -0.305000    0.000000   1.0
    0.310000   -0.310000    0.000000   1.0
    0.315000   -0.315000    0.000000   1.0
    0.320000   -0.320000    0.000000   1.0
    0.325000   -0.325000    0.000000   1.0
    0.330000   -0.330000    0.000000   1.0
    0.335000   -0.335000    0.000000   1.0
    0.340000   -0.340000    0.000000   1.0
    0.345000   -0.345000    0.000000   1.0
    0.350000   -0.350000    0.000000   1.0
    0.355000   -0.355000    0.000000   1.0
    0.360000   -0.360000    0.000000   1.0
    0.365000   -0.365000    0.000000   1.0
    0.370000   -0.370000    0.000000   1.0
    0.375000   -0.375000    0.000000   1.0
    0.380000   -0.380000    0.000000   1.0
    0.385000   -0.385000    0.000000   1.0
    0.390000   -0.390000    0.000000   1.0
    0.395000   -0.395000    0.000000   1.0
    0.400000   -0.400000    0.000000   1.0
    0.405000   -0.405000    0.000000   1.0
    0.410000   -0.410000    0.000000   1.0
    0.415000   -0.415000    0.000000   1.0
    0.420000   -0.420000    0.000000   1.0
    0.425000   -0.425000    0.000000   1.0
    0.430000   -0.430000    0.000000   1.0
    0.435000   -0.435000    0.000000   1.0
    0.440000   -0.440000    0.000000   1.0
    0.445000   -0.445000    0.000000   1.0
    0.450000   -0.450000    0.000000   1.0
    0.455000   -0.455000    0.000000   1.0
    0.460000   -0.460000    0.000000   1.0
    0.465000   -0.465000    0.000000   1.0
    0.470000   -0.470000    0.000000   1.0
    0.475000   -0.475000    0.000000   1.0
    0.480000   -0.480000    0.000000   1.0
    0.485000   -0.485000    0.000000   1.0
    0.490000   -0.490000    0.000000   1.0
    0.495000   -0.495000    0.000000   1.0
    0.500000   -0.500000    0.000000   1.0
    0.502874   -0.497126    0.000000   1.0
    0.505747   -0.494253    0.000000   1.0
    0.508621   -0.491379    0.000000   1.0
    0.511494   -0.488506    0.000000   1.0
    0.514368   -0.485632    0.000000   1.0
    0.517241   -0.482759    0.000000   1.0
    0.520115   -0.479885    0.000000   1.0
    0.522989   -0.477011    0.000000   1.0
    0.525862   -0.474138    0.000000   1.0
    0.528736   -0.471264    0.000000   1.0
    0.531609   -0.468391    0.000000   1.0
    0.534483   -0.465517    0.000000   1.0
    0.537356   -0.462644    0.000000   1.0
    0.540230   -0.459770    0.000000   1.0
    0.543103   -0.456897    0.000000   1.0
    0.545977   -0.454023    0.000000   1.0
    0.548851   -0.451149    0.000000   1.0
    0.551724   -0.448276    0.000000   1.0
    0.554598   -0.445402    0.000000   1.0
    0.557471   -0.442529    0.000000   1.0
    0.560345   -0.439655    0.000000   1.0
    0.563218   -0.436782    0.000000   1.0
    0.566092   -0.433908    0.000000   1.0
    0.568966   -0.431034    0.000000   1.0
    0.571839   -0.428161    0.000000   1.0
    0.574713   -0.425287    0.000000   1.0
    0.577586   -0.422414    0.000000   1.0
    0.580460   -0.419540    0.000000   1.0
    0.583333   -0.416667    0.000000   1.0
    0.586207   -0.413793    0.000000   1.0
    0.589080   -0.410920    0.000000   1.0
    0.591954   -0.408046    0.000000   1.0
    0.594828   -0.405172    0.000000   1.0
    0.597701   -0.402299    0.000000   1.0
    0.600575   -0.399425    0.000000   1.0
    0.603448   -0.396552    0.000000   1.0
    0.606322   -0.393678    0.000000   1.0
    0.609195   -0.390805    0.000000   1.0
    0.612069   -0.387931    0.000000   1.0
    0.614943   -0.385057    0.000000   1.0
    0.617816   -0.382184    0.000000   1.0
    0.620690   -0.379310    0.000000   1.0
    0.623563   -0.376437    0.000000   1.0
    0.626437   -0.373563    0.000000   1.0
    0.629310   -0.370690    0.000000   1.0
    0.632184   -0.367816    0.000000   1.0
    0.635057   -0.364943    0.000000   1.0
    0.637931   -0.362069    0.000000   1.0
    0.640805   -0.359195    0.000000   1.0
    0.643678   -0.356322    0.000000   1.0
    0.646552   -0.353448    0.000000   1.0
    0.649425   -0.350575    0.000000   1.0
    0.652299   -0.347701    0.000000   1.0
    0.655172   -0.344828    0.000000   1.0
    0.658046   -0.341954    0.000000   1.0
    0.660920   -0.339080    0.000000   1.0
    0.663793   -0.336207    0.000000   1.0
    0.666667   -0.333333    0.000000   1.0
    0.660870   -0.330435    0.000000   1.0
    0.655072   -0.327536    0.000000   1.0
    0.649275   -0.324638    0.000000   1.0
    0.643478   -0.321739    0.000000   1.0
    0.637681   -0.318841    0.000000   1.0
    0.631884   -0.315942    0.000000   1.0
    0.626087   -0.313043    0.000000   1.0
    0.620290   -0.310145    0.000000   1.0
    0.614493   -0.307246    0.000000   1.0
    0.608696   -0.304348    0.000000   1.0
    0.602899   -0.301449    0.000000   1.0
    0.597101   -0.298551    0.000000   1.0
    0.591304   -0.295652    0.000000   1.0
    0.585507   -0.292754    0.000000   1.0
    0.579710   -0.289855    0.000000   1.0
    0.573913   -0.286957    0.000000   1.0
    0.568116   -0.284058    0.000000   1.0
    0.562319   -0.281159    0.000000   1.0
    0.556522   -0.278261    0.000000   1.0
    0.550725   -0.275362    0.000000   1.0
    0.544928   -0.272464    0.000000   1.0
    0.539130   -0.269565    0.000000   1.0
    0.533333   -0.266667    0.000000   1.0
    0.527536   -0.263768    0.000000   1.0
    0.521739   -0.260870    0.000000   1.0
    0.515942   -0.257971    0.000000   1.0
    0.510145   -0.255072    0.000000   1.0
    0.504348   -0.252174    0.000000   1.0
    0.498551   -0.249275    0.000000   1.0
    0.492754   -0.246377    0.000000   1.0
    0.486957   -0.243478    0.000000   1.0
    0.481159   -0.240580    0.000000   1.0
    0.475362   -0.237681    0.000000   1.0
    0.469565   -0.234783    0.000000   1.0
    0.463768   -0.231884    0.000000   1.0
    0.457971   -0.228986    0.000000   1.0
    0.452174   -0.226087    0.000000   1.0
    0.446377   -0.223188    0.000000   1.0
    0.440580   -0.220290    0.000000   1.0
    0.434783   -0.217391    0.000000   1.0
    0.428986   -0.214493    0.000000   1.0
    0.423188   -0.211594    0.000000   1.0
    0.417391   -0.208696    0.000000   1.0
    0.411594   -0.205797    0.000000   1.0
    0.405797   -0.202899    0.000000   1.0
    0.400000   -0.200000    0.000000   1.0
    0.394203   -0.197101    0.000000   1.0
    0.388406   -0.194203    0.000000   1.0
    0.382609   -0.191304    0.000000   1.0
    0.376812   -0.188406    0.000000   1.0
    0.371014   -0.185507    0.000000   1.0
    0.365217   -0.182609    0.000000   1.0
    0.359420   -0.179710    0.000000   1.0
    0.353623   -0.176812    0.000000   1.0
    0.347826   -0.173913    0.000000   1.0
    0.342029   -0.171014    0.000000   1.0
    0.336232   -0.168116    0.000000   1.0
    0.330435   -0.165217    0.000000   1.0
    0.324638   -0.162319    0.000000   1.0
    0.318841   -0.159420    0.000000   1.0
    0.313043   -0.156522    0.000000   1.0
    0.307246   -0.153623    0.000000   1.0
    0.301449   -0.150725    0.000000   1.0
    0.295652   -0.147826    0.000000   1.0
    0.289855   -0.144928    0.000000   1.0
    0.284058   -0.142029    0.000000   1.0
    0.278261   -0.139130    0.000000   1.0
    0.272464   -0.136232    0.000000   1.0
    0.266667   -0.133333    0.000000   1.0
    0.260870   -0.130435    0.000000   1.0
    0.255072   -0.127536    0.000000   1.0
    0.249275   -0.124638    0.000000   1.0
    0.243478   -0.121739    0.000000   1.0
    0.237681   -0.118841    0.000000   1.0
    0.231884   -0.115942    0.000000   1.0
    0.226087   -0.113043    0.000000   1.0
    0.220290   -0.110145    0.000000   1.0
    0.214493   -0.107246    0.000000   1.0
    0.208696   -0.104348    0.000000   1.0
    0.202899   -0.101449    0.000000   1.0
    0.197101   -0.098551    0.000000   1.0
    0.191304   -0.095652    0.000000   1.0
    0.185507   -0.092754    0.000000   1.0
    0.179710   -0.089855    0.000000   1.0
    0.173913   -0.086957    0.000000   1.0
    0.168116   -0.084058    0.000000   1.0
    0.162319   -0.081159    0.000000   1.0
    0.156522   -0.078261    0.000000   1.0
    0.150725   -0.075362    0.000000   1.0
    0.144928   -0.072464    0.000000   1.0
    0.139130   -0.069565    0.000000   1.0
    0.133333   -0.066667    0.000000   1.0
    0.127536   -0.063768    0.000000   1.0
    0.121739   -0.060870    0.000000   1.0
    0.115942   -0.057971    0.000000   1.0
    0.110145   -0.055072    0.000000   1.0
    0.104348   -0.052174    0.000000   1.0
    0.098551   -0.049275    0.000000   1.0
    0.092754   -0.046377    0.000000   1.0
    0.086957   -0.043478    0.000000   1.0
    0.081159   -0.040580    0.000000   1.0
    0.075362   -0.037681    0.000000   1.0
    0.069565   -0.034783    0.000000   1.0
    0.063768   -0.031884    0.000000   1.0
    0.057971   -0.028986    0.000000   1.0
    0.052174   -0.026087    0.000000   1.0
    0.046377   -0.023188    0.000000   1.0
    0.040580   -0.020290    0.000000   1.0
    0.034783   -0.017391    0.000000   1.0
    0.028986   -0.014493    0.000000   1.0
    0.023188   -0.011594    0.000000   1.0
    0.017391   -0.008696    0.000000   1.0
    0.011594   -0.005797    0.000000   1.0
    0.005797   -0.002899    0.000000   1.0
    0.000000    0.000000    0.000000   1.0
