num_bands         =   60
num_wann          =   12

#dis_win_max       = 19.2d0
dis_froz_max      =  0.0d0
dis_num_iter      =  1000
num_iter          =  1000

fermi_energy = -2.3891

#restart = plot
wannier_plot = true

guiding_centres = true

bands_plot = true

begin kpoint_path
M  0.500000000000    0.000000000000   0.00000000000   G  0.000000000000    0.000000000000   0.00000000000
G  0.000000000000    0.000000000000   0.00000000000   K  0.333333333333    0.333333333333   0.00000000000
K  0.333333333333    0.333333333333   0.00000000000   M  0.500000000000    0.000000000000   0.00000000000
end kpoint_path

Begin Atoms_Frac
C       0.000000000000        0.000000000000        0.0
C       0.666666666666        0.666666666666        0.0
C       0.666666666666        0.333333333333        0.0
C       0.333333333333        0.666666666666        0.0
C       0.333333333333       -0.000000000000        0.0
C       0.000000000000        0.333333333333        0.0
End Atoms_Frac

Begin Projections
C:pz
C:sp2
End Projections

Begin Unit_Cell_Cart
 4.260845   0.000000   0.000000
-2.130422   3.690000   0.000000
 0.000000   0.000000  30.000000
End Unit_Cell_Cart

# use a dense grid to test bvectors
mp_grid      = 24 24 1

begin kpoints
  0.00000000  0.00000000  0.00000000
  0.00000000  0.04166667  0.00000000
  0.00000000  0.08333333  0.00000000
  0.00000000  0.12500000  0.00000000
  0.00000000  0.16666667  0.00000000
  0.00000000  0.20833333  0.00000000
  0.00000000  0.25000000  0.00000000
  0.00000000  0.29166667  0.00000000
  0.00000000  0.33333333  0.00000000
  0.00000000  0.37500000  0.00000000
  0.00000000  0.41666667  0.00000000
  0.00000000  0.45833333  0.00000000
  0.00000000  0.50000000  0.00000000
  0.00000000  0.54166667  0.00000000
  0.00000000  0.58333333  0.00000000
  0.00000000  0.62500000  0.00000000
  0.00000000  0.66666667  0.00000000
  0.00000000  0.70833333  0.00000000
  0.00000000  0.75000000  0.00000000
  0.00000000  0.79166667  0.00000000
  0.00000000  0.83333333  0.00000000
  0.00000000  0.87500000  0.00000000
  0.00000000  0.91666667  0.00000000
  0.00000000  0.95833333  0.00000000
  0.04166667  0.00000000  0.00000000
  0.04166667  0.04166667  0.00000000
  0.04166667  0.08333333  0.00000000
  0.04166667  0.12500000  0.00000000
  0.04166667  0.16666667  0.00000000
  0.04166667  0.20833333  0.00000000
  0.04166667  0.25000000  0.00000000
  0.04166667  0.29166667  0.00000000
  0.04166667  0.33333333  0.00000000
  0.04166667  0.37500000  0.00000000
  0.04166667  0.41666667  0.00000000
  0.04166667  0.45833333  0.00000000
  0.04166667  0.50000000  0.00000000
  0.04166667  0.54166667  0.00000000
  0.04166667  0.58333333  0.00000000
  0.04166667  0.62500000  0.00000000
  0.04166667  0.66666667  0.00000000
  0.04166667  0.70833333  0.00000000
  0.04166667  0.75000000  0.00000000
  0.04166667  0.79166667  0.00000000
  0.04166667  0.83333333  0.00000000
  0.04166667  0.87500000  0.00000000
  0.04166667  0.91666667  0.00000000
  0.04166667  0.95833333  0.00000000
  0.08333333  0.00000000  0.00000000
  0.08333333  0.04166667  0.00000000
  0.08333333  0.08333333  0.00000000
  0.08333333  0.12500000  0.00000000
  0.08333333  0.16666667  0.00000000
  0.08333333  0.20833333  0.00000000
  0.08333333  0.25000000  0.00000000
  0.08333333  0.29166667  0.00000000
  0.08333333  0.33333333  0.00000000
  0.08333333  0.37500000  0.00000000
  0.08333333  0.41666667  0.00000000
  0.08333333  0.45833333  0.00000000
  0.08333333  0.50000000  0.00000000
  0.08333333  0.54166667  0.00000000
  0.08333333  0.58333333  0.00000000
  0.08333333  0.62500000  0.00000000
  0.08333333  0.66666667  0.00000000
  0.08333333  0.70833333  0.00000000
  0.08333333  0.75000000  0.00000000
  0.08333333  0.79166667  0.00000000
  0.08333333  0.83333333  0.00000000
  0.08333333  0.87500000  0.00000000
  0.08333333  0.91666667  0.00000000
  0.08333333  0.95833333  0.00000000
  0.12500000  0.00000000  0.00000000
  0.12500000  0.04166667  0.00000000
  0.12500000  0.08333333  0.00000000
  0.12500000  0.12500000  0.00000000
  0.12500000  0.16666667  0.00000000
  0.12500000  0.20833333  0.00000000
  0.12500000  0.25000000  0.00000000
  0.12500000  0.29166667  0.00000000
  0.12500000  0.33333333  0.00000000
  0.12500000  0.37500000  0.00000000
  0.12500000  0.41666667  0.00000000
  0.12500000  0.45833333  0.00000000
  0.12500000  0.50000000  0.00000000
  0.12500000  0.54166667  0.00000000
  0.12500000  0.58333333  0.00000000
  0.12500000  0.62500000  0.00000000
  0.12500000  0.66666667  0.00000000
  0.12500000  0.70833333  0.00000000
  0.12500000  0.75000000  0.00000000
  0.12500000  0.79166667  0.00000000
  0.12500000  0.83333333  0.00000000
  0.12500000  0.87500000  0.00000000
  0.12500000  0.91666667  0.00000000
  0.12500000  0.95833333  0.00000000
  0.16666667  0.00000000  0.00000000
  0.16666667  0.04166667  0.00000000
  0.16666667  0.08333333  0.00000000
  0.16666667  0.12500000  0.00000000
  0.16666667  0.16666667  0.00000000
  0.16666667  0.20833333  0.00000000
  0.16666667  0.25000000  0.00000000
  0.16666667  0.29166667  0.00000000
  0.16666667  0.33333333  0.00000000
  0.16666667  0.37500000  0.00000000
  0.16666667  0.41666667  0.00000000
  0.16666667  0.45833333  0.00000000
  0.16666667  0.50000000  0.00000000
  0.16666667  0.54166667  0.00000000
  0.16666667  0.58333333  0.00000000
  0.16666667  0.62500000  0.00000000
  0.16666667  0.66666667  0.00000000
  0.16666667  0.70833333  0.00000000
  0.16666667  0.75000000  0.00000000
  0.16666667  0.79166667  0.00000000
  0.16666667  0.83333333  0.00000000
  0.16666667  0.87500000  0.00000000
  0.16666667  0.91666667  0.00000000
  0.16666667  0.95833333  0.00000000
  0.20833333  0.00000000  0.00000000
  0.20833333  0.04166667  0.00000000
  0.20833333  0.08333333  0.00000000
  0.20833333  0.12500000  0.00000000
  0.20833333  0.16666667  0.00000000
  0.20833333  0.20833333  0.00000000
  0.20833333  0.25000000  0.00000000
  0.20833333  0.29166667  0.00000000
  0.20833333  0.33333333  0.00000000
  0.20833333  0.37500000  0.00000000
  0.20833333  0.41666667  0.00000000
  0.20833333  0.45833333  0.00000000
  0.20833333  0.50000000  0.00000000
  0.20833333  0.54166667  0.00000000
  0.20833333  0.58333333  0.00000000
  0.20833333  0.62500000  0.00000000
  0.20833333  0.66666667  0.00000000
  0.20833333  0.70833333  0.00000000
  0.20833333  0.75000000  0.00000000
  0.20833333  0.79166667  0.00000000
  0.20833333  0.83333333  0.00000000
  0.20833333  0.87500000  0.00000000
  0.20833333  0.91666667  0.00000000
  0.20833333  0.95833333  0.00000000
  0.25000000  0.00000000  0.00000000
  0.25000000  0.04166667  0.00000000
  0.25000000  0.08333333  0.00000000
  0.25000000  0.12500000  0.00000000
  0.25000000  0.16666667  0.00000000
  0.25000000  0.20833333  0.00000000
  0.25000000  0.25000000  0.00000000
  0.25000000  0.29166667  0.00000000
  0.25000000  0.33333333  0.00000000
  0.25000000  0.37500000  0.00000000
  0.25000000  0.41666667  0.00000000
  0.25000000  0.45833333  0.00000000
  0.25000000  0.50000000  0.00000000
  0.25000000  0.54166667  0.00000000
  0.25000000  0.58333333  0.00000000
  0.25000000  0.62500000  0.00000000
  0.25000000  0.66666667  0.00000000
  0.25000000  0.70833333  0.00000000
  0.25000000  0.75000000  0.00000000
  0.25000000  0.79166667  0.00000000
  0.25000000  0.83333333  0.00000000
  0.25000000  0.87500000  0.00000000
  0.25000000  0.91666667  0.00000000
  0.25000000  0.95833333  0.00000000
  0.29166667  0.00000000  0.00000000
  0.29166667  0.04166667  0.00000000
  0.29166667  0.08333333  0.00000000
  0.29166667  0.12500000  0.00000000
  0.29166667  0.16666667  0.00000000
  0.29166667  0.20833333  0.00000000
  0.29166667  0.25000000  0.00000000
  0.29166667  0.29166667  0.00000000
  0.29166667  0.33333333  0.00000000
  0.29166667  0.37500000  0.00000000
  0.29166667  0.41666667  0.00000000
  0.29166667  0.45833333  0.00000000
  0.29166667  0.50000000  0.00000000
  0.29166667  0.54166667  0.00000000
  0.29166667  0.58333333  0.00000000
  0.29166667  0.62500000  0.00000000
  0.29166667  0.66666667  0.00000000
  0.29166667  0.70833333  0.00000000
  0.29166667  0.75000000  0.00000000
  0.29166667  0.79166667  0.00000000
  0.29166667  0.83333333  0.00000000
  0.29166667  0.87500000  0.00000000
  0.29166667  0.91666667  0.00000000
  0.29166667  0.95833333  0.00000000
  0.33333333  0.00000000  0.00000000
  0.33333333  0.04166667  0.00000000
  0.33333333  0.08333333  0.00000000
  0.33333333  0.12500000  0.00000000
  0.33333333  0.16666667  0.00000000
  0.33333333  0.20833333  0.00000000
  0.33333333  0.25000000  0.00000000
  0.33333333  0.29166667  0.00000000
  0.33333333  0.33333333  0.00000000
  0.33333333  0.37500000  0.00000000
  0.33333333  0.41666667  0.00000000
  0.33333333  0.45833333  0.00000000
  0.33333333  0.50000000  0.00000000
  0.33333333  0.54166667  0.00000000
  0.33333333  0.58333333  0.00000000
  0.33333333  0.62500000  0.00000000
  0.33333333  0.66666667  0.00000000
  0.33333333  0.70833333  0.00000000
  0.33333333  0.75000000  0.00000000
  0.33333333  0.79166667  0.00000000
  0.33333333  0.83333333  0.00000000
  0.33333333  0.87500000  0.00000000
  0.33333333  0.91666667  0.00000000
  0.33333333  0.95833333  0.00000000
  0.37500000  0.00000000  0.00000000
  0.37500000  0.04166667  0.00000000
  0.37500000  0.08333333  0.00000000
  0.37500000  0.12500000  0.00000000
  0.37500000  0.16666667  0.00000000
  0.37500000  0.20833333  0.00000000
  0.37500000  0.25000000  0.00000000
  0.37500000  0.29166667  0.00000000
  0.37500000  0.33333333  0.00000000
  0.37500000  0.37500000  0.00000000
  0.37500000  0.41666667  0.00000000
  0.37500000  0.45833333  0.00000000
  0.37500000  0.50000000  0.00000000
  0.37500000  0.54166667  0.00000000
  0.37500000  0.58333333  0.00000000
  0.37500000  0.62500000  0.00000000
  0.37500000  0.66666667  0.00000000
  0.37500000  0.70833333  0.00000000
  0.37500000  0.75000000  0.00000000
  0.37500000  0.79166667  0.00000000
  0.37500000  0.83333333  0.00000000
  0.37500000  0.87500000  0.00000000
  0.37500000  0.91666667  0.00000000
  0.37500000  0.95833333  0.00000000
  0.41666667  0.00000000  0.00000000
  0.41666667  0.04166667  0.00000000
  0.41666667  0.08333333  0.00000000
  0.41666667  0.12500000  0.00000000
  0.41666667  0.16666667  0.00000000
  0.41666667  0.20833333  0.00000000
  0.41666667  0.25000000  0.00000000
  0.41666667  0.29166667  0.00000000
  0.41666667  0.33333333  0.00000000
  0.41666667  0.37500000  0.00000000
  0.41666667  0.41666667  0.00000000
  0.41666667  0.45833333  0.00000000
  0.41666667  0.50000000  0.00000000
  0.41666667  0.54166667  0.00000000
  0.41666667  0.58333333  0.00000000
  0.41666667  0.62500000  0.00000000
  0.41666667  0.66666667  0.00000000
  0.41666667  0.70833333  0.00000000
  0.41666667  0.75000000  0.00000000
  0.41666667  0.79166667  0.00000000
  0.41666667  0.83333333  0.00000000
  0.41666667  0.87500000  0.00000000
  0.41666667  0.91666667  0.00000000
  0.41666667  0.95833333  0.00000000
  0.45833333  0.00000000  0.00000000
  0.45833333  0.04166667  0.00000000
  0.45833333  0.08333333  0.00000000
  0.45833333  0.12500000  0.00000000
  0.45833333  0.16666667  0.00000000
  0.45833333  0.20833333  0.00000000
  0.45833333  0.25000000  0.00000000
  0.45833333  0.29166667  0.00000000
  0.45833333  0.33333333  0.00000000
  0.45833333  0.37500000  0.00000000
  0.45833333  0.41666667  0.00000000
  0.45833333  0.45833333  0.00000000
  0.45833333  0.50000000  0.00000000
  0.45833333  0.54166667  0.00000000
  0.45833333  0.58333333  0.00000000
  0.45833333  0.62500000  0.00000000
  0.45833333  0.66666667  0.00000000
  0.45833333  0.70833333  0.00000000
  0.45833333  0.75000000  0.00000000
  0.45833333  0.79166667  0.00000000
  0.45833333  0.83333333  0.00000000
  0.45833333  0.87500000  0.00000000
  0.45833333  0.91666667  0.00000000
  0.45833333  0.95833333  0.00000000
  0.50000000  0.00000000  0.00000000
  0.50000000  0.04166667  0.00000000
  0.50000000  0.08333333  0.00000000
  0.50000000  0.12500000  0.00000000
  0.50000000  0.16666667  0.00000000
  0.50000000  0.20833333  0.00000000
  0.50000000  0.25000000  0.00000000
  0.50000000  0.29166667  0.00000000
  0.50000000  0.33333333  0.00000000
  0.50000000  0.37500000  0.00000000
  0.50000000  0.41666667  0.00000000
  0.50000000  0.45833333  0.00000000
  0.50000000  0.50000000  0.00000000
  0.50000000  0.54166667  0.00000000
  0.50000000  0.58333333  0.00000000
  0.50000000  0.62500000  0.00000000
  0.50000000  0.66666667  0.00000000
  0.50000000  0.70833333  0.00000000
  0.50000000  0.75000000  0.00000000
  0.50000000  0.79166667  0.00000000
  0.50000000  0.83333333  0.00000000
  0.50000000  0.87500000  0.00000000
  0.50000000  0.91666667  0.00000000
  0.50000000  0.95833333  0.00000000
  0.54166667  0.00000000  0.00000000
  0.54166667  0.04166667  0.00000000
  0.54166667  0.08333333  0.00000000
  0.54166667  0.12500000  0.00000000
  0.54166667  0.16666667  0.00000000
  0.54166667  0.20833333  0.00000000
  0.54166667  0.25000000  0.00000000
  0.54166667  0.29166667  0.00000000
  0.54166667  0.33333333  0.00000000
  0.54166667  0.37500000  0.00000000
  0.54166667  0.41666667  0.00000000
  0.54166667  0.45833333  0.00000000
  0.54166667  0.50000000  0.00000000
  0.54166667  0.54166667  0.00000000
  0.54166667  0.58333333  0.00000000
  0.54166667  0.62500000  0.00000000
  0.54166667  0.66666667  0.00000000
  0.54166667  0.70833333  0.00000000
  0.54166667  0.75000000  0.00000000
  0.54166667  0.79166667  0.00000000
  0.54166667  0.83333333  0.00000000
  0.54166667  0.87500000  0.00000000
  0.54166667  0.91666667  0.00000000
  0.54166667  0.95833333  0.00000000
  0.58333333  0.00000000  0.00000000
  0.58333333  0.04166667  0.00000000
  0.58333333  0.08333333  0.00000000
  0.58333333  0.12500000  0.00000000
  0.58333333  0.16666667  0.00000000
  0.58333333  0.20833333  0.00000000
  0.58333333  0.25000000  0.00000000
  0.58333333  0.29166667  0.00000000
  0.58333333  0.33333333  0.00000000
  0.58333333  0.37500000  0.00000000
  0.58333333  0.41666667  0.00000000
  0.58333333  0.45833333  0.00000000
  0.58333333  0.50000000  0.00000000
  0.58333333  0.54166667  0.00000000
  0.58333333  0.58333333  0.00000000
  0.58333333  0.62500000  0.00000000
  0.58333333  0.66666667  0.00000000
  0.58333333  0.70833333  0.00000000
  0.58333333  0.75000000  0.00000000
  0.58333333  0.79166667  0.00000000
  0.58333333  0.83333333  0.00000000
  0.58333333  0.87500000  0.00000000
  0.58333333  0.91666667  0.00000000
  0.58333333  0.95833333  0.00000000
  0.62500000  0.00000000  0.00000000
  0.62500000  0.04166667  0.00000000
  0.62500000  0.08333333  0.00000000
  0.62500000  0.12500000  0.00000000
  0.62500000  0.16666667  0.00000000
  0.62500000  0.20833333  0.00000000
  0.62500000  0.25000000  0.00000000
  0.62500000  0.29166667  0.00000000
  0.62500000  0.33333333  0.00000000
  0.62500000  0.37500000  0.00000000
  0.62500000  0.41666667  0.00000000
  0.62500000  0.45833333  0.00000000
  0.62500000  0.50000000  0.00000000
  0.62500000  0.54166667  0.00000000
  0.62500000  0.58333333  0.00000000
  0.62500000  0.62500000  0.00000000
  0.62500000  0.66666667  0.00000000
  0.62500000  0.70833333  0.00000000
  0.62500000  0.75000000  0.00000000
  0.62500000  0.79166667  0.00000000
  0.62500000  0.83333333  0.00000000
  0.62500000  0.87500000  0.00000000
  0.62500000  0.91666667  0.00000000
  0.62500000  0.95833333  0.00000000
  0.66666667  0.00000000  0.00000000
  0.66666667  0.04166667  0.00000000
  0.66666667  0.08333333  0.00000000
  0.66666667  0.12500000  0.00000000
  0.66666667  0.16666667  0.00000000
  0.66666667  0.20833333  0.00000000
  0.66666667  0.25000000  0.00000000
  0.66666667  0.29166667  0.00000000
  0.66666667  0.33333333  0.00000000
  0.66666667  0.37500000  0.00000000
  0.66666667  0.41666667  0.00000000
  0.66666667  0.45833333  0.00000000
  0.66666667  0.50000000  0.00000000
  0.66666667  0.54166667  0.00000000
  0.66666667  0.58333333  0.00000000
  0.66666667  0.62500000  0.00000000
  0.66666667  0.66666667  0.00000000
  0.66666667  0.70833333  0.00000000
  0.66666667  0.75000000  0.00000000
  0.66666667  0.79166667  0.00000000
  0.66666667  0.83333333  0.00000000
  0.66666667  0.87500000  0.00000000
  0.66666667  0.91666667  0.00000000
  0.66666667  0.95833333  0.00000000
  0.70833333  0.00000000  0.00000000
  0.70833333  0.04166667  0.00000000
  0.70833333  0.08333333  0.00000000
  0.70833333  0.12500000  0.00000000
  0.70833333  0.16666667  0.00000000
  0.70833333  0.20833333  0.00000000
  0.70833333  0.25000000  0.00000000
  0.70833333  0.29166667  0.00000000
  0.70833333  0.33333333  0.00000000
  0.70833333  0.37500000  0.00000000
  0.70833333  0.41666667  0.00000000
  0.70833333  0.45833333  0.00000000
  0.70833333  0.50000000  0.00000000
  0.70833333  0.54166667  0.00000000
  0.70833333  0.58333333  0.00000000
  0.70833333  0.62500000  0.00000000
  0.70833333  0.66666667  0.00000000
  0.70833333  0.70833333  0.00000000
  0.70833333  0.75000000  0.00000000
  0.70833333  0.79166667  0.00000000
  0.70833333  0.83333333  0.00000000
  0.70833333  0.87500000  0.00000000
  0.70833333  0.91666667  0.00000000
  0.70833333  0.95833333  0.00000000
  0.75000000  0.00000000  0.00000000
  0.75000000  0.04166667  0.00000000
  0.75000000  0.08333333  0.00000000
  0.75000000  0.12500000  0.00000000
  0.75000000  0.16666667  0.00000000
  0.75000000  0.20833333  0.00000000
  0.75000000  0.25000000  0.00000000
  0.75000000  0.29166667  0.00000000
  0.75000000  0.33333333  0.00000000
  0.75000000  0.37500000  0.00000000
  0.75000000  0.41666667  0.00000000
  0.75000000  0.45833333  0.00000000
  0.75000000  0.50000000  0.00000000
  0.75000000  0.54166667  0.00000000
  0.75000000  0.58333333  0.00000000
  0.75000000  0.62500000  0.00000000
  0.75000000  0.66666667  0.00000000
  0.75000000  0.70833333  0.00000000
  0.75000000  0.75000000  0.00000000
  0.75000000  0.79166667  0.00000000
  0.75000000  0.83333333  0.00000000
  0.75000000  0.87500000  0.00000000
  0.75000000  0.91666667  0.00000000
  0.75000000  0.95833333  0.00000000
  0.79166667  0.00000000  0.00000000
  0.79166667  0.04166667  0.00000000
  0.79166667  0.08333333  0.00000000
  0.79166667  0.12500000  0.00000000
  0.79166667  0.16666667  0.00000000
  0.79166667  0.20833333  0.00000000
  0.79166667  0.25000000  0.00000000
  0.79166667  0.29166667  0.00000000
  0.79166667  0.33333333  0.00000000
  0.79166667  0.37500000  0.00000000
  0.79166667  0.41666667  0.00000000
  0.79166667  0.45833333  0.00000000
  0.79166667  0.50000000  0.00000000
  0.79166667  0.54166667  0.00000000
  0.79166667  0.58333333  0.00000000
  0.79166667  0.62500000  0.00000000
  0.79166667  0.66666667  0.00000000
  0.79166667  0.70833333  0.00000000
  0.79166667  0.75000000  0.00000000
  0.79166667  0.79166667  0.00000000
  0.79166667  0.83333333  0.00000000
  0.79166667  0.87500000  0.00000000
  0.79166667  0.91666667  0.00000000
  0.79166667  0.95833333  0.00000000
  0.83333333  0.00000000  0.00000000
  0.83333333  0.04166667  0.00000000
  0.83333333  0.08333333  0.00000000
  0.83333333  0.12500000  0.00000000
  0.83333333  0.16666667  0.00000000
  0.83333333  0.20833333  0.00000000
  0.83333333  0.25000000  0.00000000
  0.83333333  0.29166667  0.00000000
  0.83333333  0.33333333  0.00000000
  0.83333333  0.37500000  0.00000000
  0.83333333  0.41666667  0.00000000
  0.83333333  0.45833333  0.00000000
  0.83333333  0.50000000  0.00000000
  0.83333333  0.54166667  0.00000000
  0.83333333  0.58333333  0.00000000
  0.83333333  0.62500000  0.00000000
  0.83333333  0.66666667  0.00000000
  0.83333333  0.70833333  0.00000000
  0.83333333  0.75000000  0.00000000
  0.83333333  0.79166667  0.00000000
  0.83333333  0.83333333  0.00000000
  0.83333333  0.87500000  0.00000000
  0.83333333  0.91666667  0.00000000
  0.83333333  0.95833333  0.00000000
  0.87500000  0.00000000  0.00000000
  0.87500000  0.04166667  0.00000000
  0.87500000  0.08333333  0.00000000
  0.87500000  0.12500000  0.00000000
  0.87500000  0.16666667  0.00000000
  0.87500000  0.20833333  0.00000000
  0.87500000  0.25000000  0.00000000
  0.87500000  0.29166667  0.00000000
  0.87500000  0.33333333  0.00000000
  0.87500000  0.37500000  0.00000000
  0.87500000  0.41666667  0.00000000
  0.87500000  0.45833333  0.00000000
  0.87500000  0.50000000  0.00000000
  0.87500000  0.54166667  0.00000000
  0.87500000  0.58333333  0.00000000
  0.87500000  0.62500000  0.00000000
  0.87500000  0.66666667  0.00000000
  0.87500000  0.70833333  0.00000000
  0.87500000  0.75000000  0.00000000
  0.87500000  0.79166667  0.00000000
  0.87500000  0.83333333  0.00000000
  0.87500000  0.87500000  0.00000000
  0.87500000  0.91666667  0.00000000
  0.87500000  0.95833333  0.00000000
  0.91666667  0.00000000  0.00000000
  0.91666667  0.04166667  0.00000000
  0.91666667  0.08333333  0.00000000
  0.91666667  0.12500000  0.00000000
  0.91666667  0.16666667  0.00000000
  0.91666667  0.20833333  0.00000000
  0.91666667  0.25000000  0.00000000
  0.91666667  0.29166667  0.00000000
  0.91666667  0.33333333  0.00000000
  0.91666667  0.37500000  0.00000000
  0.91666667  0.41666667  0.00000000
  0.91666667  0.45833333  0.00000000
  0.91666667  0.50000000  0.00000000
  0.91666667  0.54166667  0.00000000
  0.91666667  0.58333333  0.00000000
  0.91666667  0.62500000  0.00000000
  0.91666667  0.66666667  0.00000000
  0.91666667  0.70833333  0.00000000
  0.91666667  0.75000000  0.00000000
  0.91666667  0.79166667  0.00000000
  0.91666667  0.83333333  0.00000000
  0.91666667  0.87500000  0.00000000
  0.91666667  0.91666667  0.00000000
  0.91666667  0.95833333  0.00000000
  0.95833333  0.00000000  0.00000000
  0.95833333  0.04166667  0.00000000
  0.95833333  0.08333333  0.00000000
  0.95833333  0.12500000  0.00000000
  0.95833333  0.16666667  0.00000000
  0.95833333  0.20833333  0.00000000
  0.95833333  0.25000000  0.00000000
  0.95833333  0.29166667  0.00000000
  0.95833333  0.33333333  0.00000000
  0.95833333  0.37500000  0.00000000
  0.95833333  0.41666667  0.00000000
  0.95833333  0.45833333  0.00000000
  0.95833333  0.50000000  0.00000000
  0.95833333  0.54166667  0.00000000
  0.95833333  0.58333333  0.00000000
  0.95833333  0.62500000  0.00000000
  0.95833333  0.66666667  0.00000000
  0.95833333  0.70833333  0.00000000
  0.95833333  0.75000000  0.00000000
  0.95833333  0.79166667  0.00000000
  0.95833333  0.83333333  0.00000000
  0.95833333  0.87500000  0.00000000
  0.95833333  0.91666667  0.00000000
  0.95833333  0.95833333  0.00000000
end Kpoints
